
Gurobi 11.0.0 (win64) logging started Sat Jun 15 09:38:44 2024

Set parameter LogFile to value "./GurobiLog/stage_0_iter_0.log"

Gurobi 11.0.0 (win64) logging started Sat Jun 15 09:39:31 2024

Set parameter LogFile to value "./GurobiLog/stage_0_iter_0.log"

Gurobi 11.0.0 (win64) logging started Sat Jun 15 10:37:30 2024

Set parameter LogFile to value "./GurobiLog/stage_0_iter_0.log"

Gurobi 11.0.0 (win64) logging started Sat Jun 15 10:37:51 2024

Set parameter LogFile to value "./GurobiLog/stage_0_iter_0.log"

Gurobi 11.0.0 (win64) logging started Sat Jun 15 10:56:42 2024

Set parameter LogFile to value "./GurobiLog/stage_0_iter_0.log"

Gurobi 11.0.0 (win64) logging started Sat Jun 15 13:12:09 2024

Set parameter LogFile to value "./GurobiLog/stage_0_iter_0.log"

Gurobi 11.0.0 (win64) logging started Sat Jun 15 13:13:10 2024

Set parameter LogFile to value "./GurobiLog/stage_0_iter_0.log"

Gurobi 11.0.0 (win64) logging started Sat Jun 15 13:14:33 2024

Set parameter LogFile to value "./GurobiLog/stage_0_iter_0.log"

Gurobi 11.0.0 (win64) logging started Sat Jun 15 13:45:53 2024

Set parameter LogFile to value "./GurobiLog/stage_0_iter_0.log"

Gurobi 11.0.0 (win64) logging started Sun Jun 16 17:41:52 2024

Set parameter LogFile to value "./GurobiLog/stage_0_iter_0.log"

Gurobi 11.0.0 (win64) logging started Tue Jul  2 10:25:39 2024

Set parameter LogFile to value "./GurobiLog/stage_0_iter_0.log"

Gurobi 11.0.0 (win64) logging started Tue Jul  2 14:49:12 2024

Set parameter LogFile to value "./GurobiLog/stage_0_iter_0.log"
